37 0
10 0
20 0
110 0
51 1
6 1
100 2
79 2
48 2
5 3
46 3
80 3
4 3
39 4
7 5
63 6
80 7
119 7
112 7
71 7
67 7
57 8
101 8
109 8
3 8
59 8
80 9
32 9
66 11
50 12
98 12
112 13
109 14
61 14
33 15
10 15
93 15
99 16
1 16
46 16
81 16
78 16
116 17
14 17
99 18
26 18
80 18
61 18
98 18
56 19
63 19
77 20
6 20
32 20
103 20
16 20
11 20
46 21
86 21
74 22
48 22
45 22
67 23
5 23
106 23
24 24
89 24
22 24
112 25
37 25
21 26
35 26
79 26
74 26
45 26
33 26
76 27
24 27
14 27
69 27
64 27
32 28
85 28
2 28
73 29
57 29
75 29
83 30
34 30
6 30
31 30
81 30
106 31
95 31
101 32
90 32
99 32
42 32
116 32
87 33
16 33
11 34
63 34
15 35
41 35
94 35
95 35
32 36
6 36
89 36
29 37
79 37
92 37
49 38
41 38
38 38
101 39
82 39
65 39
57 39
